38646
001010101010011011101111110011
24 6 21 24 21 4 21 28 22 6 29 14 13 23 6 18 13 10 22 17 18 21 23 24 10 25 23 4 29 2 4 14 4 16 22 6 20 8 24 16 25 8 28 4 13 6 13 21 14 14 24 16 16 16 8 6 6 4 22 28 29 2 25 8 13 6 14 14 28 25 17 28 4 20 10 23 23 17 13 16 13 10 8 25 29 13 6 23 24 6 28 14 25 25 2 13 18 28 10 17 17 16 25 18 4 24 29 24 16 13 20 29 14 6 25 20 28 25 14 8 20 21 17 4 10 21 2 25 14 21 28 2 16 20 23 14 23 8 17 10 6 22 25 16 25 2 24 2 22 25 16 10 23 17 8 28 2 21 13 13 20 24 10 24 20 17 23 4 13 21 23 20 28 17 29 2 18 10 29 10 2 16 2 28 18 17 28 23 17 16 2 21 6 4 22 29 18 21 10 6 